W=6;
H=5;

MAX_TIME=27;
MAX_TRACKS=13;

TARGET=(3,6);

TRAINS=[(1,1,DOWN),(5,1,TOP)];
DECOYS=[];

INIT_POS=[
(1,1,STRAIGHT_TD),
(1,4,DSWITCH_L_R_D),
(2,5,STRAIGHT_TD),
(3,2,ROCK),
(3,4,ROCK),
(3,5,ESWITCH_T_D_R),
(3,6,STRAIGHT_RL),
(4,5,STRAIGHT_TD),
(5,1,STRAIGHT_TD),
(5,4,DSWITCH_R_L_T),
];
TUNNEL_PAIRS=[];

GATES=[];
ACTIVATIONS=[
(2,5,2),
(4,5,1),
];

DSWITCHES=[
(1,4,2),
(5,4,1),
];
STATIONS=[];

SEMAPHORE_SUPPLY=0;
